<number of tasks>
50

<cycle time>
1000

<order strength>
0.198


<task times>
1 259
2 41
3 28
4 89
5 231
6 200
7 97
8 276
9 30
10 83
11 110
12 158
13 152
14 154
15 216
16 135
17 160
18 128
19 143
20 129
21 70
22 107
23 246
24 122
25 166
26 43
27 163
28 98
29 267
30 306
31 41
32 58
33 103
34 152
35 75
36 144
37 103
38 45
39 216
40 205
41 116
42 58
43 199
44 161
45 35
46 43
47 39
48 98
49 107
50 123

<precedence relations>
1,4
1,5
1,6
3,7
3,8
4,9
5,10
6,11
7,12
7,14
7,28
8,13
8,15
8,20
9,18
10,17
11,20
12,19
13,16
13,22
15,21
15,41
16,23
17,24
18,25
19,26
20,27
20,35
22,28
23,29
24,33
25,30
26,31
27,32
28,34
28,35
28,36
28,37
29,39
30,40
31,39
32,41
33,38
34,45
35,42
35,44
36,47
37,43
37,49
38,46
40,48
40,50
41,47
41,49

<end>
